NAME: GRASP_11_9
TYPE: TSP
COMMENT: line_11_9
DIMENSION: 11
EDGE_WEIGHT_TYPE: EUC_2D
NODE_COORD_SECTION
1 0.0 0.0
2 0.0 6.0
3 0.0 100.0
4 0.0 90.0
5 0.0 73.0
6 0.0 54.0
7 0.0 90.0
8 0.0 102.0
9 0.0 20.0
10 0.0 84.0
11 0.0 16.0
